c ! encoding i-pc 250
p cnf 464 684
-251 0
40 -252 0
179 -253 0
251 -254 0
251 -255 0
251 -256 0
251 -257 0
51 -258 0
65 -258 0
259 0
260 -261 0
261 -262 0
-65 -262 0
258 262 -263 0
-85 -264 0
126 -264 0
265 -266 0
266 -267 0
-126 -267 0
264 267 -268 0
263 -270 0
268 -270 0
145 -270 0
269 -270 0
270 -272 0
271 -272 0
272 -273 0
236 -273 0
265 -274 0
274 -275 0
145 -275 0
85 -276 0
-145 -276 0
275 276 -277 0
277 -278 0
46 -278 0
265 -280 0
279 -280 0
280 -281 0
-46 -281 0
278 281 -282 0
282 -283 0
-249 -283 0
283 -286 0
260 -286 0
284 -286 0
285 -286 0
286 -287 0
-236 -287 0
273 287 -288 0
289 -290 0
290 -291 0
222 -291 0
289 -292 0
292 -293 0
215 -293 0
220 -294 0
-215 -294 0
295 -296 0
-222 -296 0
250 -298 0
299 -300 0
300 -301 0
-250 -301 0
5 -303 0
128 -303 0
303 -305 0
304 -305 0
305 -306 0
34 -306 0
5 -307 0
304 -307 0
307 -308 0
128 -308 0
304 -309 0
309 -310 0
5 -310 0
-123 -311 0
-5 -311 0
310 311 -312 0
312 -313 0
-128 -313 0
308 313 -314 0
314 -315 0
-34 -315 0
306 315 -316 0
9 -317 0
-139 -317 0
152 -317 0
318 -322 0
319 -322 0
320 -322 0
321 -322 0
288 -323 0
297 -323 0
302 -323 0
316 -323 0
322 -323 0
251 -329 0
251 -338 0
251 -342 0
251 -347 0
251 -351 0
251 -354 0
160 -360 0
251 -361 0
251 -362 0
251 -363 0
51 -365 0
364 -365 0
365 -366 0
65 -366 0
-139 -367 0
260 -367 0
367 -368 0
-65 -368 0
366 368 -369 0
369 -370 0
152 -370 0
51 -371 0
65 -371 0
139 -371 0
371 -372 0
-152 -372 0
370 372 -373 0
9 -374 0
145 -374 0
236 -374 0
373 -375 0
316 -375 0
268 -375 0
374 -375 0
269 -375 0
375 -376 0
249 -376 0
51 -377 0
145 -377 0
268 -378 0
377 -378 0
269 -378 0
378 -379 0
236 -379 0
282 -380 0
260 -380 0
285 -380 0
380 -381 0
-236 -381 0
379 381 -382 0
364 -383 0
383 -384 0
152 -384 0
139 -385 0
-152 -385 0
384 385 -386 0
382 -387 0
386 -387 0
387 -388 0
65 -388 0
268 -389 0
145 -389 0
269 -389 0
389 -390 0
236 -390 0
282 -391 0
285 -391 0
391 -392 0
-236 -392 0
390 392 -393 0
-139 -394 0
152 -394 0
393 -395 0
394 -395 0
395 -396 0
260 -396 0
396 -397 0
-65 -397 0
388 397 -398 0
304 -399 0
399 -400 0
9 -400 0
-123 -401 0
-9 -401 0
400 401 -402 0
402 -403 0
303 -403 0
403 -404 0
34 -404 0
402 -405 0
5 -405 0
405 -406 0
128 -406 0
312 -407 0
9 -407 0
-123 -409 0
408 -409 0
409 -410 0
-9 -410 0
407 410 -411 0
411 -412 0
-128 -412 0
406 412 -413 0
413 -414 0
-34 -414 0
404 414 -415 0
398 -416 0
415 -416 0
416 -417 0
-249 -417 0
320 -420 0
319 -420 0
318 -420 0
321 -420 0
418 -421 0
297 -421 0
302 -421 0
420 -421 0
251 -427 0
251 -432 0
251 -436 0
251 -444 0
251 -448 0
-160 -454 0
455 -456 0
251 -457 0
-179 -460 0
-40 -462 0
1 0
2 0
-3 0
-4 0
6 0
-7 0
-8 0
10 0
-11 0
-12 0
13 0
14 0
15 0
-16 0
17 0
18 0
19 0
20 0
21 0
22 0
-23 0
24 0
-25 0
26 0
27 0
-28 0
-29 0
30 0
-31 0
32 0
35 0
36 0
-37 0
38 0
39 0
-41 0
-42 0
43 0
-44 0
45 0
48 0
-49 0
-50 0
52 0
53 0
54 0
-56 0
-57 0
58 0
59 0
-60 0
-61 0
62 0
-63 0
64 0
66 0
-67 0
-68 0
69 0
-70 0
71 0
72 0
-73 0
74 0
-75 0
-76 0
77 0
-78 0
79 0
-80 0
81 0
-82 0
-83 0
84 0
86 0
87 0
88 0
89 0
90 0
-91 0
92 0
93 0
94 0
-95 0
-96 0
97 0
98 0
99 0
100 0
101 0
102 0
-103 0
104 0
105 0
106 0
107 0
108 0
109 0
110 0
111 0
112 0
113 0
114 0
-115 0
-116 0
-117 0
-118 0
119 0
-120 0
121 0
-122 0
124 0
125 0
-127 0
129 0
-130 0
-131 0
133 0
-134 0
136 0
-137 0
138 0
-140 0
142 0
-143 0
144 0
-146 0
-147 0
148 0
149 0
-150 0
153 0
154 0
-155 0
156 0
-157 0
-158 0
159 0
161 0
-162 0
163 0
164 0
165 0
-166 0
-167 0
-168 0
169 0
-170 0
171 0
-172 0
173 0
-174 0
175 0
176 0
177 0
180 0
181 0
-183 0
184 0
186 0
-187 0
188 0
-189 0
190 0
191 0
-192 0
193 0
194 0
195 0
196 0
-199 0
-200 0
-201 0
202 0
-203 0
204 0
205 0
206 0
-207 0
-208 0
209 0
211 0
-212 0
-213 0
-214 0
-216 0
-217 0
-218 0
-219 0
221 0
-223 0
224 0
-225 0
-227 0
229 0
-230 0
231 0
232 0
233 0
234 0
235 0
-237 0
238 0
239 0
240 0
-241 0
-242 0
243 0
244 0
-245 0
247 0
-248 0
228 457 0
-228 456 0
-452 453 0
-450 451 0
-447 449 0
-445 446 0
-440 441 0
-438 439 0
-434 435 0
-425 426 0
-422 423 0
-421 422 0
-419 421 0
-417 418 0
-416 417 0
-414 415 0
-413 414 0
-411 412 0
-410 411 0
-409 410 0
-408 409 0
-407 411 0
-405 406 0
-401 402 0
9 401 410 0
-400 402 0
-398 416 0
-396 397 0
-394 395 0
-393 395 0
-392 393 0
-390 393 0
-389 390 0
-388 398 0
-386 387 0
-385 386 0
-383 384 0
-381 382 0
-380 381 0
-376 418 0
-437 439 0
-375 376 0
-373 375 0
-372 373 0
-369 370 0
-431 433 0
-368 369 0
-428 430 0
-367 368 0
-365 366 0
-139 364 371 385 0
-359 360 0
-357 359 0
-355 356 0
33 354 448 0
-352 353 0
-350 352 0
-349 350 0
-346 348 0
-418 421 0
55 342 427 0
-341 343 0
-339 340 0
-356 357 0
47 338 432 0
-335 336 0
-378 379 0
-327 328 0
-449 450 0
-379 382 0
-353 355 0
-325 327 0
-323 324 0
-322 323 0
25 358 419 0
-197 321 0
-442 443 0
132 320 0
-132 320 0
198 319 0
-402 403 405 0
-198 319 0
141 318 0
-141 318 0
-404 415 0
-451 453 0
-420 421 0
-397 398 0
-424 425 0
-310 312 0
-5 303 307 310 405 408 0
-152 317 370 384 394 0
-314 315 0
-315 316 0
-311 312 0
123 304 311 401 409 0
-309 310 0
-387 388 0
-307 308 0
-236 273 374 379 390 0
-306 316 0
-426 428 0
-305 306 0
-280 281 0
-304 305 307 309 399 0
-382 387 0
220 289 0
-128 303 308 406 0
-298 302 0
-300 301 0
-250 298 0
-222 291 0
-364 365 383 0
199 464 0
-296 297 0
34 315 414 0
-295 296 0
-294 295 0
-308 314 0
-316 323 375 0
-312 313 407 0
-289 290 292 0
-345 346 0
-299 300 0
-288 323 0
-460 461 0
-333 334 0
-266 267 0
-284 286 0
-384 386 0
-270 272 0
-85 265 276 0
-459 460 0
-332 333 0
-263 270 0
-220 289 294 0
-313 314 0
-259 261 266 274 280 292 300 309 383 399 0
-283 286 0
236 287 381 392 0
65 262 284 368 397 0
-458 459 0
-330 332 0
-262 263 0
-135 256 363 0
-279 280 0
249 271 283 417 0
51 260 0
226 329 0
-391 392 0
-271 272 0
-423 425 0
-210 299 0
128 313 412 0
-395 396 0
-260 261 286 367 380 396 0
-185 254 361 0
-412 413 0
-51 258 260 365 371 377 0
-399 400 0
-287 288 0
222 296 0
-290 291 0
-430 431 0
-366 369 0
250 301 0
-281 282 0
-461 462 0
-334 336 0
-264 268 0
-258 263 0
-344 345 0
215 294 0
-123 304 0
-246 255 362 0
-443 445 0
152 372 385 0
-453 454 0
-276 277 0
85 264 265 0
-178 257 0
-441 442 0
126 267 285 0
-336 337 0
-267 268 0
-462 463 0
-374 375 0
-211 340 424 0
-337 339 0
-268 270 375 378 389 0
-46 269 278 0
-65 258 284 366 371 388 0
-403 404 0
46 269 281 0
-34 306 404 0
-269 270 375 378 389 0
-249 271 376 0
-277 278 0
151 347 436 0
-285 286 380 391 0
-9 317 374 400 407 0
-272 273 0
-348 349 0
-273 288 0
-370 373 0
-274 275 0
-275 277 0
-301 302 0
145 276 279 0
-343 344 0
-278 282 0
5 311 408 0
-340 341 0
-303 305 403 0
-293 295 0
-265 266 274 280 0
-324 325 0
-317 323 0
-415 416 0
-292 293 0
-286 287 0
182 351 444 0
23 326 419 0
-446 447 0
-291 297 0
197 321 0
-429 430 0
201 335 429 0
-406 413 0
-433 434 0
-456 458 0
-328 330 0
-261 262 0
-125 331 438 0
-215 290 293 0
-377 378 0
-326 327 0
139 317 364 367 394 0
-435 437 0
-74 317 452 0
-371 372 0
-439 440 0
-331 332 0
-358 359 0
-282 283 380 391 0
-126 264 285 0
